(set-logic HORN)
(declare-fun inv ((_ BitVec 64) (_ BitVec 64) (_ BitVec 64) ) Bool)
(assert (forall ((n (_ BitVec 64)) (x (_ BitVec 64)) (y (_ BitVec 64))) 
       (=> ( and ( = y (_ bv0 64) ) ( = x n ) ) (inv n x y))))
(assert (forall ((n (_ BitVec 64)) (x (_ BitVec 64)) (y (_ BitVec 64)) (n! (_ BitVec 64)) (x! (_ BitVec 64)) (y! (_ BitVec 64))) 
       (=> (and (inv n x y) ( and ( bvsgt x (_ bv0 64) ) ( = x! ( bvsub x (_ bv1 64) ) ) ( = y! ( bvadd y (_ bv1 64) ) ) ( = n! n ) )) (inv n! x! y!))))
(assert (forall ((n (_ BitVec 64)) (x (_ BitVec 64)) (y (_ BitVec 64))) 
       (=> (inv n x y) ( or ( bvsgt x (_ bv0 64) ) ( = y n ) ))))
(check-sat)
